WARNING: for repeatability, setting FPU to use double precision
============================[ Problem Statistics ]=============================
|                                                                             |
|  Number of variables:           100                                         |
|  Number of clauses:             449                                         |
|  Parse time:                   0.00 s                                       |
|  Eliminated clauses:           0.00 Mb                                      |
|  Simplification time:          0.00 s                                       |
|                                                                             |
============================[ Search Statistics ]==============================
| Conflicts |          ORIGINAL         |          LEARNT          | Progress |
|           |    Vars  Clauses Literals |    Limit  Clauses Lit/Cl |          |
===============================================================================
|       100 |      99      448     1352 |      164      100      9 |  0.010 % |
===============================================================================
restarts              : 2
conflicts             : 117            (50540 /sec)
decisions             : 158            (0.00 % random) (68251 /sec)
propagations          : 3142           (1357235 /sec)
conflict literals     : 1009           (9.10 % deleted)
Memory used           : 13.00 MB
CPU time              : 0.002315 s

SATISFIABLE
